p cnf 430 1488
-191 -122 0
-191 -67 0
-191 32 0
-191 -168 0
-191 11 0
191 122 67 -32 168 -11 0
-192 -189 0
-192 23 0
-192 -90 0
-192 64 0
-192 102 0
192 189 -23 90 -64 -102 0
-193 30 0
-193 8 0
-193 -37 0
-193 73 0
-193 -42 0
193 -30 -8 37 -73 42 0
-194 35 0
-194 97 0
-194 -144 0
-194 -135 0
-194 142 0
194 -35 -97 144 135 -142 0
-195 -1 0
-195 -52 0
-195 126 0
-195 -97 0
-195 -79 0
195 1 52 -126 97 79 0
191 192 193 194 195 0
-196 -83 0
-196 -16 0
-196 -27 0
-196 -30 0
-196 -186 0
196 83 16 27 30 186 0
-197 -154 0
-197 -36 0
-197 -6 0
-197 5 0
-197 112 0
197 154 36 6 -5 -112 0
-198 134 0
-198 7 0
-198 59 0
-198 -97 0
-198 157 0
198 -134 -7 -59 97 -157 0
-199 -17 0
-199 25 0
-199 178 0
-199 -98 0
-199 -87 0
199 17 -25 -178 98 87 0
-200 -3 0
-200 52 0
-200 10 0
-200 7 0
-200 145 0
200 3 -52 -10 -7 -145 0
196 197 198 199 200 0
-201 92 0
-201 -119 0
-201 190 0
-201 -187 0
-201 179 0
201 -92 119 -190 187 -179 0
-202 -126 0
-202 185 0
-202 -188 0
-202 -169 0
-202 -121 0
202 126 -185 188 169 121 0
-203 -24 0
-203 -58 0
-203 158 0
-203 -92 0
-203 -135 0
203 24 58 -158 92 135 0
-204 -47 0
-204 -53 0
-204 69 0
-204 -94 0
-204 -29 0
204 47 53 -69 94 29 0
-205 -62 0
-205 -153 0
-205 -160 0
-205 -146 0
-205 -117 0
205 62 153 160 146 117 0
201 202 203 204 205 0
-206 -63 0
-206 -34 0
-206 -106 0
-206 -37 0
-206 -78 0
206 63 34 106 37 78 0
-207 1 0
-207 -156 0
-207 173 0
-207 -121 0
-207 29 0
207 -1 156 -173 121 -29 0
-208 178 0
-208 -97 0
-208 168 0
-208 -180 0
-208 60 0
208 -178 97 -168 180 -60 0
-209 35 0
-209 -190 0
-209 144 0
-209 149 0
-209 123 0
209 -35 190 -144 -149 -123 0
-210 -24 0
-210 -132 0
-210 129 0
-210 -101 0
-210 -93 0
210 24 132 -129 101 93 0
206 207 208 209 210 0
-211 7 0
-211 -177 0
-211 -127 0
-211 -97 0
-211 -43 0
211 -7 177 127 97 43 0
-212 104 0
-212 -49 0
-212 -69 0
-212 180 0
-212 -34 0
212 -104 49 69 -180 34 0
-213 74 0
-213 -92 0
-213 172 0
-213 134 0
-213 -136 0
213 -74 92 -172 -134 136 0
-214 -83 0
-214 -71 0
-214 169 0
-214 -65 0
-214 -64 0
214 83 71 -169 65 64 0
-215 107 0
-215 -4 0
-215 -85 0
-215 -155 0
-215 -43 0
215 -107 4 85 155 43 0
211 212 213 214 215 0
-216 128 0
-216 -177 0
-216 -186 0
-216 -133 0
-216 165 0
216 -128 177 186 133 -165 0
-217 182 0
-217 -118 0
-217 108 0
-217 -82 0
-217 -186 0
217 -182 118 -108 82 186 0
-218 -143 0
-218 -56 0
-218 135 0
-218 10 0
-218 98 0
218 143 56 -135 -10 -98 0
-219 -85 0
-219 108 0
-219 -91 0
-219 -152 0
-219 47 0
219 85 -108 91 152 -47 0
-220 43 0
-220 103 0
-220 50 0
-220 155 0
-220 27 0
220 -43 -103 -50 -155 -27 0
216 217 218 219 220 0
-221 133 0
-221 4 0
-221 154 0
-221 170 0
-221 95 0
221 -133 -4 -154 -170 -95 0
-222 -64 0
-222 -113 0
-222 145 0
-222 134 0
-222 -62 0
222 64 113 -145 -134 62 0
-223 106 0
-223 -142 0
-223 -181 0
-223 -18 0
-223 -19 0
223 -106 142 181 18 19 0
-224 54 0
-224 -82 0
-224 45 0
-224 86 0
-224 -148 0
224 -54 82 -45 -86 148 0
-225 -10 0
-225 -103 0
-225 -89 0
-225 12 0
-225 -92 0
225 10 103 89 -12 92 0
221 222 223 224 225 0
-226 8 0
-226 -136 0
-226 -94 0
-226 -3 0
-226 188 0
226 -8 136 94 3 -188 0
-227 58 0
-227 -154 0
-227 -155 0
-227 -96 0
-227 177 0
227 -58 154 155 96 -177 0
-228 -32 0
-228 71 0
-228 25 0
-228 26 0
-228 132 0
228 32 -71 -25 -26 -132 0
-229 -134 0
-229 170 0
-229 -36 0
-229 -98 0
-229 -190 0
229 134 -170 36 98 190 0
-230 144 0
-230 42 0
-230 -1 0
-230 -21 0
-230 111 0
230 -144 -42 1 21 -111 0
226 227 228 229 230 0
-231 -5 0
-231 -61 0
-231 -28 0
-231 -20 0
-231 63 0
231 5 61 28 20 -63 0
-232 -18 0
-232 -157 0
-232 168 0
-232 162 0
-232 119 0
232 18 157 -168 -162 -119 0
-233 113 0
-233 -54 0
-233 -56 0
-233 -71 0
-233 -149 0
233 -113 54 56 71 149 0
-234 -90 0
-234 154 0
-234 -26 0
-234 112 0
-234 184 0
234 90 -154 26 -112 -184 0
-235 72 0
-235 -61 0
-235 -15 0
-235 -163 0
-235 -162 0
235 -72 61 15 163 162 0
231 232 233 234 235 0
-236 48 0
-236 -165 0
-236 81 0
-236 36 0
-236 -92 0
236 -48 165 -81 -36 92 0
-237 -135 0
-237 13 0
-237 158 0
-237 -70 0
-237 183 0
237 135 -13 -158 70 -183 0
-238 -58 0
-238 -78 0
-238 177 0
-238 122 0
-238 -189 0
238 58 78 -177 -122 189 0
-239 134 0
-239 15 0
-239 -168 0
-239 163 0
-239 188 0
239 -134 -15 168 -163 -188 0
-240 11 0
-240 -164 0
-240 -124 0
-240 -172 0
-240 138 0
240 -11 164 124 172 -138 0
236 237 238 239 240 0
-241 -52 0
-241 127 0
-241 45 0
-241 46 0
-241 42 0
241 52 -127 -45 -46 -42 0
-242 92 0
-242 -126 0
-242 91 0
-242 148 0
-242 -115 0
242 -92 126 -91 -148 115 0
-243 -150 0
-243 2 0
-243 180 0
-243 7 0
-243 63 0
243 150 -2 -180 -7 -63 0
-244 -102 0
-244 -157 0
-244 -83 0
-244 -139 0
-244 72 0
244 102 157 83 139 -72 0
-245 123 0
-245 138 0
-245 -63 0
-245 -37 0
-245 -32 0
245 -123 -138 63 37 32 0
241 242 243 244 245 0
-246 96 0
-246 39 0
-246 -87 0
-246 109 0
-246 59 0
246 -96 -39 87 -109 -59 0
-247 -183 0
-247 55 0
-247 110 0
-247 82 0
-247 33 0
247 183 -55 -110 -82 -33 0
-248 -63 0
-248 89 0
-248 142 0
-248 45 0
-248 156 0
248 63 -89 -142 -45 -156 0
-249 -166 0
-249 65 0
-249 -58 0
-249 -5 0
-249 119 0
249 166 -65 58 5 -119 0
-250 36 0
-250 70 0
-250 99 0
-250 -43 0
-250 -41 0
250 -36 -70 -99 43 41 0
246 247 248 249 250 0
-251 125 0
-251 -171 0
-251 122 0
-251 19 0
-251 34 0
251 -125 171 -122 -19 -34 0
-252 38 0
-252 -161 0
-252 -117 0
-252 -2 0
-252 118 0
252 -38 161 117 2 -118 0
-253 -168 0
-253 -20 0
-253 136 0
-253 -87 0
-253 10 0
253 168 20 -136 87 -10 0
-254 4 0
-254 181 0
-254 134 0
-254 -93 0
-254 -88 0
254 -4 -181 -134 93 88 0
-255 -50 0
-255 -14 0
-255 -63 0
-255 136 0
-255 -18 0
255 50 14 63 -136 18 0
251 252 253 254 255 0
-256 -86 0
-256 2 0
-256 -130 0
-256 -57 0
-256 189 0
256 86 -2 130 57 -189 0
-257 145 0
-257 182 0
-257 -140 0
-257 80 0
-257 -23 0
257 -145 -182 140 -80 23 0
-258 158 0
-258 161 0
-258 171 0
-258 25 0
-258 153 0
258 -158 -161 -171 -25 -153 0
-259 90 0
-259 -81 0
-259 166 0
-259 -120 0
-259 -12 0
259 -90 81 -166 120 12 0
-260 71 0
-260 -62 0
-260 -27 0
-260 155 0
-260 171 0
260 -71 62 27 -155 -171 0
256 257 258 259 260 0
-261 88 0
-261 156 0
-261 -48 0
-261 -51 0
-261 32 0
261 -88 -156 48 51 -32 0
-262 -96 0
-262 -155 0
-262 -73 0
-262 102 0
-262 139 0
262 96 155 73 -102 -139 0
-263 -72 0
-263 43 0
-263 190 0
-263 -116 0
-263 140 0
263 72 -43 -190 116 -140 0
-264 -137 0
-264 -58 0
-264 100 0
-264 82 0
-264 -106 0
264 137 58 -100 -82 106 0
-265 46 0
-265 -34 0
-265 15 0
-265 10 0
-265 -181 0
265 -46 34 -15 -10 181 0
261 262 263 264 265 0
-266 96 0
-266 -121 0
-266 -67 0
-266 173 0
-266 -34 0
266 -96 121 67 -173 34 0
-267 -165 0
-267 -52 0
-267 79 0
-267 -133 0
-267 -9 0
267 165 52 -79 133 9 0
-268 22 0
-268 20 0
-268 109 0
-268 -38 0
-268 -184 0
268 -22 -20 -109 38 184 0
-269 -146 0
-269 -18 0
-269 -121 0
-269 -23 0
-269 -72 0
269 146 18 121 23 72 0
-270 -186 0
-270 -12 0
-270 26 0
-270 31 0
-270 -75 0
270 186 12 -26 -31 75 0
266 267 268 269 270 0
-271 -73 0
-271 13 0
-271 108 0
-271 4 0
-271 -169 0
271 73 -13 -108 -4 169 0
-272 -102 0
-272 -181 0
-272 -42 0
-272 118 0
-272 65 0
272 102 181 42 -118 -65 0
-273 -28 0
-273 -127 0
-273 10 0
-273 17 0
-273 52 0
273 28 127 -10 -17 -52 0
-274 129 0
-274 149 0
-274 -171 0
-274 -46 0
-274 3 0
274 -129 -149 171 46 -3 0
-275 -178 0
-275 118 0
-275 163 0
-275 161 0
-275 -145 0
275 178 -118 -163 -161 145 0
271 272 273 274 275 0
-276 133 0
-276 175 0
-276 -98 0
-276 -12 0
-276 73 0
276 -133 -175 98 12 -73 0
-277 -109 0
-277 133 0
-277 -46 0
-277 90 0
-277 106 0
277 109 -133 46 -90 -106 0
-278 87 0
-278 -132 0
-278 133 0
-278 52 0
-278 -8 0
278 -87 132 -133 -52 8 0
-279 49 0
-279 107 0
-279 -177 0
-279 -158 0
-279 124 0
279 -49 -107 177 158 -124 0
-280 113 0
-280 153 0
-280 116 0
-280 144 0
-280 -64 0
280 -113 -153 -116 -144 64 0
276 277 278 279 280 0
-281 70 0
-281 -109 0
-281 68 0
-281 -182 0
-281 -83 0
281 -70 109 -68 182 83 0
-282 -28 0
-282 46 0
-282 -111 0
-282 89 0
-282 68 0
282 28 -46 111 -89 -68 0
-283 45 0
-283 37 0
-283 -94 0
-283 -122 0
-283 -11 0
283 -45 -37 94 122 11 0
-284 140 0
-284 -105 0
-284 58 0
-284 75 0
-284 111 0
284 -140 105 -58 -75 -111 0
-285 -95 0
-285 -133 0
-285 -132 0
-285 -154 0
-285 65 0
285 95 133 132 154 -65 0
281 282 283 284 285 0
-286 -28 0
-286 -94 0
-286 92 0
-286 -175 0
-286 -183 0
286 28 94 -92 175 183 0
-287 121 0
-287 -96 0
-287 11 0
-287 99 0
-287 8 0
287 -121 96 -11 -99 -8 0
-288 -113 0
-288 -182 0
-288 -30 0
-288 -123 0
-288 -132 0
288 113 182 30 123 132 0
-289 -172 0
-289 -47 0
-289 -58 0
-289 128 0
-289 186 0
289 172 47 58 -128 -186 0
-290 21 0
-290 -132 0
-290 41 0
-290 112 0
-290 -164 0
290 -21 132 -41 -112 164 0
286 287 288 289 290 0
-291 -154 0
-291 -176 0
-291 113 0
-291 -74 0
-291 -122 0
291 154 176 -113 74 122 0
-292 103 0
-292 -23 0
-292 179 0
-292 58 0
-292 -125 0
292 -103 23 -179 -58 125 0
-293 116 0
-293 34 0
-293 138 0
-293 153 0
-293 175 0
293 -116 -34 -138 -153 -175 0
-294 -15 0
-294 122 0
-294 -3 0
-294 71 0
-294 -74 0
294 15 -122 3 -71 74 0
-295 -25 0
-295 101 0
-295 81 0
-295 76 0
-295 58 0
295 25 -101 -81 -76 -58 0
291 292 293 294 295 0
-296 -58 0
-296 152 0
-296 54 0
-296 -53 0
-296 -38 0
296 58 -152 -54 53 38 0
-297 -17 0
-297 -138 0
-297 63 0
-297 -159 0
-297 -105 0
297 17 138 -63 159 105 0
-298 -123 0
-298 159 0
-298 -185 0
-298 -187 0
-298 -68 0
298 123 -159 185 187 68 0
-299 -54 0
-299 -25 0
-299 -143 0
-299 -45 0
-299 -100 0
299 54 25 143 45 100 0
-300 -168 0
-300 105 0
-300 40 0
-300 -128 0
-300 3 0
300 168 -105 -40 128 -3 0
296 297 298 299 300 0
-301 -133 0
-301 187 0
-301 179 0
-301 -38 0
-301 9 0
301 133 -187 -179 38 -9 0
-302 26 0
-302 -82 0
-302 -129 0
-302 75 0
-302 -54 0
302 -26 82 129 -75 54 0
-303 81 0
-303 155 0
-303 -73 0
-303 -30 0
-303 91 0
303 -81 -155 73 30 -91 0
-304 147 0
-304 -24 0
-304 -104 0
-304 -47 0
-304 -132 0
304 -147 24 104 47 132 0
-305 -175 0
-305 170 0
-305 163 0
-305 43 0
-305 139 0
305 175 -170 -163 -43 -139 0
301 302 303 304 305 0
-306 -37 0
-306 -166 0
-306 86 0
-306 187 0
-306 -116 0
306 37 166 -86 -187 116 0
-307 88 0
-307 68 0
-307 -123 0
-307 28 0
-307 -51 0
307 -88 -68 123 -28 51 0
-308 180 0
-308 -128 0
-308 -158 0
-308 168 0
-308 -171 0
308 -180 128 158 -168 171 0
-309 61 0
-309 -6 0
-309 -32 0
-309 49 0
-309 19 0
309 -61 6 32 -49 -19 0
-310 126 0
-310 161 0
-310 -103 0
-310 -99 0
-310 123 0
310 -126 -161 103 99 -123 0
306 307 308 309 310 0
-311 104 0
-311 -65 0
-311 -55 0
-311 -18 0
-311 125 0
311 -104 65 55 18 -125 0
-312 162 0
-312 -11 0
-312 -21 0
-312 -101 0
-312 -117 0
312 -162 11 21 101 117 0
-313 58 0
-313 112 0
-313 -151 0
-313 -41 0
-313 54 0
313 -58 -112 151 41 -54 0
-314 41 0
-314 -152 0
-314 44 0
-314 -6 0
-314 170 0
314 -41 152 -44 6 -170 0
-315 52 0
-315 -5 0
-315 164 0
-315 -106 0
-315 113 0
315 -52 5 -164 106 -113 0
311 312 313 314 315 0
-316 77 0
-316 56 0
-316 91 0
-316 -169 0
-316 -127 0
316 -77 -56 -91 169 127 0
-317 -20 0
-317 90 0
-317 -62 0
-317 -158 0
-317 36 0
317 20 -90 62 158 -36 0
-318 67 0
-318 -158 0
-318 -87 0
-318 -134 0
-318 183 0
318 -67 158 87 134 -183 0
-319 -157 0
-319 -159 0
-319 -17 0
-319 22 0
-319 -181 0
319 157 159 17 -22 181 0
-320 96 0
-320 37 0
-320 166 0
-320 -55 0
-320 -116 0
320 -96 -37 -166 55 116 0
316 317 318 319 320 0
-321 91 0
-321 -86 0
-321 -24 0
-321 -30 0
-321 46 0
321 -91 86 24 30 -46 0
-322 -64 0
-322 178 0
-322 18 0
-322 -87 0
-322 -129 0
322 64 -178 -18 87 129 0
-323 160 0
-323 -129 0
-323 -30 0
-323 161 0
-323 -169 0
323 -160 129 30 -161 169 0
-324 59 0
-324 -131 0
-324 153 0
-324 -56 0
-324 -87 0
324 -59 131 -153 56 87 0
-325 -7 0
-325 179 0
-325 -83 0
-325 190 0
-325 150 0
325 7 -179 83 -190 -150 0
321 322 323 324 325 0
-326 43 0
-326 -120 0
-326 -152 0
-326 -186 0
-326 110 0
326 -43 120 152 186 -110 0
-327 -83 0
-327 -9 0
-327 -81 0
-327 11 0
-327 -36 0
327 83 9 81 -11 36 0
-328 -76 0
-328 181 0
-328 -100 0
-328 -176 0
-328 22 0
328 76 -181 100 176 -22 0
-329 132 0
-329 114 0
-329 -64 0
-329 188 0
-329 175 0
329 -132 -114 64 -188 -175 0
-330 140 0
-330 34 0
-330 -21 0
-330 -61 0
-330 -88 0
330 -140 -34 21 61 88 0
326 327 328 329 330 0
-331 -27 0
-331 -50 0
-331 -48 0
-331 174 0
-331 125 0
331 27 50 48 -174 -125 0
-332 177 0
-332 -13 0
-332 8 0
-332 161 0
-332 183 0
332 -177 13 -8 -161 -183 0
-333 -103 0
-333 -69 0
-333 -14 0
-333 29 0
-333 -12 0
333 103 69 14 -29 12 0
-334 -120 0
-334 -160 0
-334 -98 0
-334 142 0
-334 -95 0
334 120 160 98 -142 95 0
-335 56 0
-335 -164 0
-335 -52 0
-335 46 0
-335 -7 0
335 -56 164 52 -46 7 0
331 332 333 334 335 0
-336 -144 0
-336 -19 0
-336 180 0
-336 -77 0
-336 40 0
336 144 19 -180 77 -40 0
-337 8 0
-337 116 0
-337 -39 0
-337 -151 0
-337 38 0
337 -8 -116 39 151 -38 0
-338 116 0
-338 -81 0
-338 -172 0
-338 -186 0
-338 -96 0
338 -116 81 172 186 96 0
-339 -113 0
-339 -121 0
-339 33 0
-339 -165 0
-339 -166 0
339 113 121 -33 165 166 0
-340 36 0
-340 65 0
-340 -186 0
-340 -185 0
-340 14 0
340 -36 -65 186 185 -14 0
336 337 338 339 340 0
-341 -76 0
-341 59 0
-341 103 0
-341 -96 0
-341 -69 0
341 76 -59 -103 96 69 0
-342 -19 0
-342 168 0
-342 -98 0
-342 -70 0
-342 97 0
342 19 -168 98 70 -97 0
-343 163 0
-343 -174 0
-343 -76 0
-343 -166 0
-343 115 0
343 -163 174 76 166 -115 0
-344 67 0
-344 -175 0
-344 44 0
-344 110 0
-344 187 0
344 -67 175 -44 -110 -187 0
-345 -116 0
-345 -135 0
-345 158 0
-345 -18 0
-345 -151 0
345 116 135 -158 18 151 0
341 342 343 344 345 0
-346 -112 0
-346 -154 0
-346 -7 0
-346 -114 0
-346 71 0
346 112 154 7 114 -71 0
-347 -142 0
-347 -178 0
-347 126 0
-347 37 0
-347 -7 0
347 142 178 -126 -37 7 0
-348 157 0
-348 -170 0
-348 110 0
-348 -181 0
-348 144 0
348 -157 170 -110 181 -144 0
-349 85 0
-349 -124 0
-349 97 0
-349 -27 0
-349 -51 0
349 -85 124 -97 27 51 0
-350 -67 0
-350 170 0
-350 -133 0
-350 -77 0
-350 20 0
350 67 -170 133 77 -20 0
346 347 348 349 350 0
-351 170 0
-351 83 0
-351 -189 0
-351 43 0
-351 65 0
351 -170 -83 189 -43 -65 0
-352 41 0
-352 -152 0
-352 -81 0
-352 -88 0
-352 -106 0
352 -41 152 81 88 106 0
-353 -181 0
-353 -172 0
-353 -158 0
-353 135 0
-353 -122 0
353 181 172 158 -135 122 0
-354 -57 0
-354 -116 0
-354 -149 0
-354 -61 0
-354 174 0
354 57 116 149 61 -174 0
-355 113 0
-355 187 0
-355 88 0
-355 108 0
-355 -169 0
355 -113 -187 -88 -108 169 0
351 352 353 354 355 0
-356 140 0
-356 182 0
-356 -86 0
-356 -157 0
-356 98 0
356 -140 -182 86 157 -98 0
-357 21 0
-357 18 0
-357 -96 0
-357 -140 0
-357 7 0
357 -21 -18 96 140 -7 0
-358 186 0
-358 -99 0
-358 23 0
-358 -129 0
-358 85 0
358 -186 99 -23 129 -85 0
-359 33 0
-359 108 0
-359 -15 0
-359 4 0
-359 -62 0
359 -33 -108 15 -4 62 0
-360 -143 0
-360 -186 0
-360 35 0
-360 -163 0
-360 128 0
360 143 186 -35 163 -128 0
356 357 358 359 360 0
-361 125 0
-361 -142 0
-361 22 0
-361 -131 0
-361 -3 0
361 -125 142 -22 131 3 0
-362 -186 0
-362 -12 0
-362 -24 0
-362 164 0
-362 -105 0
362 186 12 24 -164 105 0
-363 -148 0
-363 -179 0
-363 -157 0
-363 79 0
-363 18 0
363 148 179 157 -79 -18 0
-364 51 0
-364 18 0
-364 90 0
-364 -164 0
-364 -49 0
364 -51 -18 -90 164 49 0
-365 -118 0
-365 79 0
-365 -13 0
-365 -103 0
-365 188 0
365 118 -79 13 103 -188 0
361 362 363 364 365 0
-366 102 0
-366 32 0
-366 116 0
-366 48 0
-366 -189 0
366 -102 -32 -116 -48 189 0
-367 -95 0
-367 -188 0
-367 126 0
-367 162 0
-367 145 0
367 95 188 -126 -162 -145 0
-368 34 0
-368 -42 0
-368 -26 0
-368 -47 0
-368 81 0
368 -34 42 26 47 -81 0
-369 29 0
-369 37 0
-369 -38 0
-369 114 0
-369 95 0
369 -29 -37 38 -114 -95 0
-370 164 0
-370 -108 0
-370 66 0
-370 183 0
-370 109 0
370 -164 108 -66 -183 -109 0
366 367 368 369 370 0
-371 -130 0
-371 189 0
-371 11 0
-371 110 0
-371 47 0
371 130 -189 -11 -110 -47 0
-372 -95 0
-372 13 0
-372 56 0
-372 132 0
-372 53 0
372 95 -13 -56 -132 -53 0
-373 183 0
-373 -109 0
-373 -73 0
-373 -175 0
-373 -32 0
373 -183 109 73 175 32 0
-374 105 0
-374 7 0
-374 35 0
-374 4 0
-374 89 0
374 -105 -7 -35 -4 -89 0
-375 -41 0
-375 -107 0
-375 -185 0
-375 -144 0
-375 -180 0
375 41 107 185 144 180 0
371 372 373 374 375 0
-376 -17 0
-376 -34 0
-376 11 0
-376 -154 0
-376 -158 0
376 17 34 -11 154 158 0
-377 56 0
-377 17 0
-377 70 0
-377 148 0
-377 -31 0
377 -56 -17 -70 -148 31 0
-378 -65 0
-378 -9 0
-378 -189 0
-378 95 0
-378 26 0
378 65 9 189 -95 -26 0
-379 -39 0
-379 48 0
-379 140 0
-379 139 0
-379 52 0
379 39 -48 -140 -139 -52 0
-380 117 0
-380 132 0
-380 -22 0
-380 -107 0
-380 -119 0
380 -117 -132 22 107 119 0
376 377 378 379 380 0
-381 -189 0
-381 -78 0
-381 -177 0
-381 -50 0
-381 96 0
381 189 78 177 50 -96 0
-382 173 0
-382 -130 0
-382 -143 0
-382 185 0
-382 55 0
382 -173 130 143 -185 -55 0
-383 93 0
-383 -92 0
-383 25 0
-383 162 0
-383 -48 0
383 -93 92 -25 -162 48 0
-384 175 0
-384 145 0
-384 113 0
-384 -24 0
-384 157 0
384 -175 -145 -113 24 -157 0
-385 176 0
-385 13 0
-385 105 0
-385 158 0
-385 -126 0
385 -176 -13 -105 -158 126 0
381 382 383 384 385 0
-386 94 0
-386 67 0
-386 -139 0
-386 -149 0
-386 -180 0
386 -94 -67 139 149 180 0
-387 -62 0
-387 49 0
-387 43 0
-387 -42 0
-387 -1 0
387 62 -49 -43 42 1 0
-388 5 0
-388 -9 0
-388 -178 0
-388 -63 0
-388 -28 0
388 -5 9 178 63 28 0
-389 95 0
-389 143 0
-389 89 0
-389 132 0
-389 -114 0
389 -95 -143 -89 -132 114 0
-390 165 0
-390 -6 0
-390 -189 0
-390 94 0
-390 160 0
390 -165 6 189 -94 -160 0
386 387 388 389 390 0
-391 -10 0
-391 133 0
-391 -44 0
-391 -136 0
-391 26 0
391 10 -133 44 136 -26 0
-392 -174 0
-392 -133 0
-392 -173 0
-392 -19 0
-392 -60 0
392 174 133 173 19 60 0
-393 119 0
-393 -184 0
-393 -70 0
-393 -95 0
-393 22 0
393 -119 184 70 95 -22 0
-394 124 0
-394 99 0
-394 5 0
-394 40 0
-394 24 0
394 -124 -99 -5 -40 -24 0
-395 23 0
-395 160 0
-395 -182 0
-395 -12 0
-395 55 0
395 -23 -160 182 12 -55 0
391 392 393 394 395 0
-396 131 0
-396 -48 0
-396 -118 0
-396 32 0
-396 101 0
396 -131 48 118 -32 -101 0
-397 157 0
-397 -163 0
-397 8 0
-397 -133 0
-397 -136 0
397 -157 163 -8 133 136 0
-398 92 0
-398 -55 0
-398 179 0
-398 50 0
-398 -131 0
398 -92 55 -179 -50 131 0
-399 -73 0
-399 96 0
-399 -135 0
-399 164 0
-399 131 0
399 73 -96 135 -164 -131 0
-400 -113 0
-400 169 0
-400 25 0
-400 32 0
-400 42 0
400 113 -169 -25 -32 -42 0
396 397 398 399 400 0
-401 26 0
-401 -112 0
-401 78 0
-401 -161 0
-401 146 0
401 -26 112 -78 161 -146 0
-402 21 0
-402 -190 0
-402 -148 0
-402 70 0
-402 12 0
402 -21 190 148 -70 -12 0
-403 153 0
-403 73 0
-403 56 0
-403 188 0
-403 -49 0
403 -153 -73 -56 -188 49 0
-404 85 0
-404 -60 0
-404 52 0
-404 166 0
-404 33 0
404 -85 60 -52 -166 -33 0
-405 -136 0
-405 -77 0
-405 96 0
-405 48 0
-405 22 0
405 136 77 -96 -48 -22 0
401 402 403 404 405 0
-406 67 0
-406 40 0
-406 65 0
-406 -170 0
-406 80 0
406 -67 -40 -65 170 -80 0
-407 71 0
-407 -187 0
-407 -184 0
-407 -22 0
-407 -122 0
407 -71 187 184 22 122 0
-408 142 0
-408 115 0
-408 40 0
-408 -168 0
-408 -118 0
408 -142 -115 -40 168 118 0
-409 130 0
-409 -81 0
-409 -92 0
-409 -125 0
-409 -33 0
409 -130 81 92 125 33 0
-410 -68 0
-410 32 0
-410 -123 0
-410 87 0
-410 176 0
410 68 -32 123 -87 -176 0
406 407 408 409 410 0
-411 150 0
-411 -105 0
-411 171 0
-411 -184 0
-411 -50 0
411 -150 105 -171 184 50 0
-412 -121 0
-412 -36 0
-412 -129 0
-412 190 0
-412 -134 0
412 121 36 129 -190 134 0
-413 -133 0
-413 -2 0
-413 -72 0
-413 184 0
-413 -91 0
413 133 2 72 -184 91 0
-414 112 0
-414 -60 0
-414 39 0
-414 38 0
-414 -145 0
414 -112 60 -39 -38 145 0
-415 22 0
-415 -67 0
-415 -166 0
-415 -90 0
-415 95 0
415 -22 67 166 90 -95 0
411 412 413 414 415 0
-416 -42 0
-416 189 0
-416 -154 0
-416 97 0
-416 118 0
416 42 -189 154 -97 -118 0
-417 31 0
-417 143 0
-417 29 0
-417 96 0
-417 15 0
417 -31 -143 -29 -96 -15 0
-418 130 0
-418 -48 0
-418 101 0
-418 58 0
-418 -70 0
418 -130 48 -101 -58 70 0
-419 -37 0
-419 85 0
-419 66 0
-419 13 0
-419 107 0
419 37 -85 -66 -13 -107 0
-420 -165 0
-420 74 0
-420 -77 0
-420 190 0
-420 158 0
420 165 -74 77 -190 -158 0
416 417 418 419 420 0
-421 -67 0
-421 176 0
-421 -91 0
-421 -130 0
-421 40 0
421 67 -176 91 130 -40 0
-422 130 0
-422 43 0
-422 171 0
-422 -131 0
-422 13 0
422 -130 -43 -171 131 -13 0
-423 -29 0
-423 11 0
-423 13 0
-423 186 0
-423 118 0
423 29 -11 -13 -186 -118 0
-424 64 0
-424 -21 0
-424 60 0
-424 3 0
-424 -132 0
424 -64 21 -60 -3 132 0
-425 -60 0
-425 109 0
-425 -126 0
-425 174 0
-425 102 0
425 60 -109 126 -174 -102 0
421 422 423 424 425 0
-426 -38 0
-426 -41 0
-426 -127 0
-426 -166 0
-426 -1 0
426 38 41 127 166 1 0
-427 24 0
-427 -66 0
-427 123 0
-427 184 0
-427 153 0
427 -24 66 -123 -184 -153 0
-428 -176 0
-428 -127 0
-428 -125 0
-428 62 0
-428 -10 0
428 176 127 125 -62 10 0
-429 153 0
-429 -2 0
-429 -37 0
-429 -181 0
-429 104 0
429 -153 2 37 181 -104 0
-430 -84 0
-430 -105 0
-430 124 0
-430 168 0
-430 -32 0
430 84 105 -124 -168 32 0
426 427 428 429 430 0
